<number of tasks>
20

<cycle time>
1000

<order strength>
0,179


<task times>
1 99
2 66
3 201
4 262
5 465
6 238
7 283
8 36
9 158
10 551
11 21
12 107
13 404
14 515
15 40
16 54
17 223
18 107
19 371
20 468

<precedence relations>
1,6
2,7
3,8
4,9
4,10
6,11
7,12
8,13
9,14
10,15
11,16
12,17
13,17
14,18
15,19
16,20

<end>
